proyfinal/src/viki/013/experimentInOfficeAgust.take6.output/653a4b54-0039-4c90-b8aa-5958d1d70482.als.out
Reading from standard input... Use '--help' for help.
============================[ Problem Statistics ]=============================
|                                                                             |
|  Number of variables:         87638                                         |
|  Number of clauses:          161767                                         |
|  Parse time:                   0.03 s                                       |
|                                                                             |
============================[ Search Statistics ]==============================
| Conflicts |          ORIGINAL         |          LEARNT          | Progress |
|           |    Vars  Clauses Literals |    Limit  Clauses Lit/Cl |          |
===============================================================================
|       100 |   62150   104543   260722 |    38332      100     11 | 29.083 % |
|       250 |   62150   104543   260722 |    42165      250     41 | 29.083 % |
|       475 |   62150   104543   260722 |    46382      475     38 | 29.083 % |
|       812 |   62150   104543   260722 |    51020      812     50 | 29.083 % |
|      1318 |   62150   104543   260722 |    56122     1318     59 | 29.083 % |
|      2077 |   62150   104543   260722 |    61734     2077     68 | 29.083 % |
|      3216 |   62150   104543   260722 |    67908     3216     67 | 29.083 % |
|      4924 |   62070   104179   259879 |    74699     4914     68 | 29.175 % |
|      7486 |   62013   104027   259525 |    82168     4928     99 | 29.240 % |
|     11330 |   61995   103877   259176 |    90385     8769     98 | 29.260 % |
|     17096 |   53041    77030   193227 |    99424    14448     95 | 39.477 % |
===============================================================================
restarts              : 70
conflicts             : 20342          (7437 /sec)
decisions             : 58655          (0.00 % random) (21444 /sec)
propagations          : 25724217       (9404818 /sec)
conflict literals     : 1712805        (51.31 % deleted)
Memory used           : 43.30 MB
CPU time              : 2.73522 s

UNSATISFIABLE
